c Output_time 26.03.2020 18:13:23_+0100 1585242803913821779
c ** Program information **
c program_name                          "QBRG_debug"
c version                               "0.3.20"
c date                                  "25.3.2020"
c gid_id                                "673970833836058123f633335630c185360d632e"
c author                                "Oliver Kullmann"
c url                                   "https://github.com/OKullmann/oklibrary/blob/master/Satisfiability/Transformers/Generators/Random/QBRG.cpp"
c ** Machine information **
c machine_name                          "chyna-Lenovo-G50-70"
c bogomips                              3791.08
c ** Compilation information **
c compiler_version                      "g++ 7.5.0"
c compilation_date                      "Mar_26_2020 11:16:30"
c compilation_options                   "--std=c++17 -pedantic -fmax-errors=5 -Wall -Wextra -g -D_GLIBCXX_DEBUG"
c NDEBUG                                0
c OPTIMIZE                              0
c ** Parameters **
c command-line                          "./QBRG_debug" "e40 a40 40" "467*1,1|2-2,1|3-3,1" "" "1,t" ""
c output                                "QuBlRaGe_120_467_1585242803842421255.qdimacs"
c options                               "filtered,renamed"
c num_quantifier_blocks                 3
c  quantifier_blocks                    1:e1-40 2:a41-80 3:e81-120
c num_clause-blocks                     1
c  clause-blocks                        467 * {1-40,1,1/2} | {41-80,1,1/2} | {81-120,1,1/2}
c num_e-seeds                           30+2=32
c  e-seeds                              1 0 1 0 4 120 2 40 1 40 0 40 1 467 3 1 1 1 1 2 2 2 1 1 2 3 3 1 1 2 1 1585242803842420510
p cnf 120 467
e 1 2 3 4 5 6 7 8 9 10 11 12 13 14 15 16 17 18 19 20 21 22 23 24 25 26 27 28 29 30 31 32 33 34 35 36 37 38 39 40 0
a 41 42 43 44 45 46 47 48 49 50 51 52 53 54 55 56 57 58 59 60 61 62 63 64 65 66 67 68 69 70 71 72 73 74 75 76 77 78 79 80 0
e 81 82 83 84 85 86 87 88 89 90 91 92 93 94 95 96 97 98 99 100 101 102 103 104 105 106 107 108 109 110 111 112 113 114 115 116 117 118 119 120 0
25 -68 -81 0
32 -76 -81 0
3 79 -81 0
26 -41 81 0
33 -52 81 0
3 53 81 0
19 -62 81 0
20 64 81 0
24 75 81 0
37 -77 81 0
-4 -79 81 0
20 -79 81 0
-20 44 -82 0
-13 -48 -82 0
11 -53 -82 0
-17 59 -82 0
-8 -64 -82 0
26 64 -82 0
-38 -70 -82 0
-12 41 82 0
1 42 82 0
6 42 82 0
-37 -46 82 0
-21 49 82 0
-30 57 82 0
-12 -74 82 0
6 -80 82 0
19 -80 82 0
-37 -55 -83 0
11 -58 -83 0
-30 -61 -83 0
-31 -65 -83 0
34 -70 -83 0
39 -77 -83 0
12 -78 -83 0
-38 42 83 0
-23 43 83 0
5 -47 83 0
-23 56 83 0
-22 -75 83 0
-39 -79 83 0
20 -41 -84 0
40 45 -84 0
-12 -55 -84 0
-40 -56 -84 0
-1 65 -84 0
20 70 -84 0
40 -74 -84 0
10 -76 -84 0
-17 77 -84 0
-27 46 84 0
-17 -55 84 0
26 72 84 0
-25 -76 84 0
17 -41 -85 0
-21 -43 -85 0
33 -55 -85 0
30 -59 -85 0
25 63 -85 0
24 64 -85 0
16 -65 -85 0
30 -66 -85 0
2 -74 -85 0
-32 41 85 0
-29 42 85 0
-5 47 85 0
-8 -58 85 0
12 -59 85 0
-4 71 85 0
35 -72 85 0
-32 78 85 0
12 -44 -86 0
36 -51 -86 0
-4 -53 -86 0
-32 76 -86 0
20 -45 86 0
-16 51 86 0
-32 -72 86 0
-33 73 86 0
-27 -78 86 0
-27 46 -87 0
-29 -60 -87 0
-9 -67 -87 0
2 80 -87 0
12 -43 87 0
20 45 87 0
5 47 87 0
39 -59 87 0
33 -66 87 0
17 -73 87 0
-38 -77 87 0
12 -41 -88 0
34 -43 -88 0
12 56 -88 0
-31 -70 -88 0
-1 72 -88 0
-1 75 -88 0
-8 76 -88 0
-2 -66 88 0
-13 -73 88 0
29 -73 88 0
34 -41 -89 0
-14 50 -89 0
35 50 -89 0
28 53 -89 0
8 -61 -89 0
-39 61 -89 0
18 -67 -89 0
17 67 -89 0
-28 -71 -89 0
40 71 -89 0
23 -73 -89 0
-26 73 -89 0
19 79 -89 0
-11 80 -89 0
5 51 89 0
35 -60 89 0
21 62 89 0
-29 -70 89 0
4 -74 89 0
29 74 89 0
14 77 89 0
-2 -68 -90 0
-14 -71 -90 0
40 -51 90 0
-6 -70 90 0
-10 41 -91 0
30 42 -91 0
-3 55 -91 0
-38 63 -91 0
27 57 91 0
12 -74 91 0
-3 -41 -92 0
2 60 -92 0
-35 -64 -92 0
-3 67 -92 0
-38 51 92 0
-11 -59 92 0
6 60 92 0
-8 60 92 0
-12 66 92 0
21 -44 -93 0
4 44 -93 0
-28 50 -93 0
-19 51 -93 0
21 59 -93 0
11 71 -93 0
6 -41 93 0
32 -45 93 0
-37 50 93 0
-38 -53 93 0
33 54 93 0
34 56 93 0
6 -57 93 0
-1 58 93 0
-15 -61 93 0
-39 -68 93 0
-13 72 93 0
14 47 -94 0
25 -52 -94 0
-15 52 -94 0
30 53 -94 0
19 54 -94 0
-38 57 -94 0
13 -66 -94 0
38 -66 -94 0
-10 -68 -94 0
-20 -78 -94 0
15 -45 94 0
29 -65 94 0
-23 -71 94 0
-20 42 -95 0
8 -44 -95 0
25 -57 -95 0
-8 63 -95 0
26 67 -95 0
5 70 -95 0
-19 73 -95 0
3 42 95 0
-21 -51 95 0
1 -68 95 0
-3 79 95 0
6 -45 -96 0
-28 46 -96 0
-25 -48 -96 0
10 52 -96 0
-7 54 -96 0
40 -70 -96 0
17 74 -96 0
18 -75 -96 0
-22 -76 -96 0
10 -77 -96 0
-18 -56 96 0
-36 -61 96 0
-31 -54 -97 0
-5 62 -97 0
-5 -63 -97 0
-40 -67 -97 0
1 69 -97 0
3 76 -97 0
34 -57 97 0
37 69 97 0
-7 70 97 0
20 -76 97 0
-5 43 -98 0
-34 -44 -98 0
-21 52 -98 0
5 57 -98 0
26 -65 -98 0
-32 -68 -98 0
-12 -70 -98 0
-23 -78 -98 0
-5 -51 98 0
37 -52 98 0
19 -55 98 0
-13 64 98 0
22 64 98 0
9 46 -99 0
28 -52 -99 0
-33 -64 -99 0
-28 -66 -99 0
-33 67 -99 0
-26 68 -99 0
40 75 -99 0
34 -77 -99 0
11 42 99 0
20 57 99 0
5 66 99 0
-21 -70 99 0
1 -79 99 0
-17 46 -100 0
-32 55 -100 0
8 -59 -100 0
-21 60 -100 0
25 51 100 0
5 55 100 0
-31 67 100 0
-5 73 100 0
-4 47 -101 0
-12 -50 -101 0
-29 -66 -101 0
-40 -68 -101 0
12 -45 101 0
-23 52 101 0
-3 -65 101 0
-39 -65 101 0
-17 -68 101 0
-4 72 101 0
-27 -53 -102 0
38 54 -102 0
-5 -60 -102 0
6 -61 -102 0
39 65 -102 0
-27 66 -102 0
34 -67 -102 0
-36 67 -102 0
5 69 -102 0
32 -70 -102 0
-16 -76 -102 0
-3 -77 -102 0
-18 -42 102 0
-10 -44 102 0
-24 58 102 0
20 -66 102 0
-39 -68 102 0
-28 69 102 0
25 73 102 0
-13 46 -103 0
36 -53 -103 0
-23 59 -103 0
-15 -62 -103 0
1 72 -103 0
-5 74 -103 0
-3 76 -103 0
-17 -60 103 0
-5 -63 103 0
-12 72 103 0
-8 76 103 0
21 -49 -104 0
-39 -50 -104 0
34 72 -104 0
5 79 -104 0
6 48 104 0
-14 57 104 0
20 -59 104 0
16 -60 104 0
-8 -65 104 0
-9 -42 -105 0
33 -44 -105 0
38 47 -105 0
-2 48 -105 0
-1 54 -105 0
13 56 -105 0
-4 58 -105 0
-9 -46 105 0
19 -51 105 0
33 -53 105 0
25 -55 105 0
-3 -59 105 0
3 -66 105 0
10 66 105 0
-2 -67 105 0
25 72 105 0
5 47 -106 0
-17 52 -106 0
30 52 -106 0
36 55 -106 0
25 -71 -106 0
31 -76 -106 0
26 -42 106 0
28 50 106 0
39 56 106 0
26 -75 106 0
-38 78 106 0
37 -51 -107 0
14 55 -107 0
-29 -65 -107 0
-2 -69 -107 0
-36 72 -107 0
-20 -76 -107 0
12 -79 -107 0
-4 79 -107 0
-30 -70 107 0
-35 -43 -108 0
-3 60 -108 0
9 43 108 0
12 -60 108 0
-1 -65 108 0
-38 -67 108 0
12 -68 108 0
-8 69 108 0
-30 -71 108 0
21 71 108 0
2 -74 108 0
-30 -42 -109 0
-4 43 -109 0
-33 43 -109 0
35 44 -109 0
2 53 -109 0
15 -71 -109 0
14 -75 -109 0
-19 -47 109 0
-40 61 109 0
-35 62 109 0
-30 -66 109 0
35 -68 109 0
-32 74 109 0
-17 -44 -110 0
26 57 -110 0
-19 -58 -110 0
21 -74 -110 0
28 -44 110 0
-15 45 110 0
32 59 110 0
-32 65 110 0
-19 -74 110 0
6 -79 110 0
1 41 -111 0
36 43 -111 0
-32 45 -111 0
-6 -47 -111 0
-17 -55 -111 0
-11 76 -111 0
-26 -46 111 0
-20 50 111 0
-21 -52 111 0
13 -56 111 0
17 -57 111 0
-6 -59 111 0
-8 -43 -112 0
-23 50 -112 0
-10 53 -112 0
30 -67 -112 0
-19 69 -112 0
-30 58 112 0
14 -66 112 0
-19 72 112 0
37 77 112 0
32 -79 112 0
1 -52 -113 0
-12 -55 -113 0
35 -59 -113 0
-16 -62 -113 0
1 -72 -113 0
24 -74 -113 0
4 74 -113 0
32 74 -113 0
23 -44 113 0
34 -50 113 0
-2 -52 113 0
-28 -58 113 0
9 -59 113 0
-12 -61 113 0
40 -61 113 0
7 -64 113 0
-12 -78 113 0
29 -80 113 0
1 45 -114 0
-38 47 -114 0
21 63 -114 0
20 -70 -114 0
22 70 -114 0
4 79 -114 0
2 -42 114 0
-24 54 114 0
1 57 114 0
32 64 114 0
-8 -59 -115 0
-34 65 -115 0
32 -80 -115 0
15 57 115 0
-29 58 115 0
-28 -61 115 0
-19 64 115 0
5 -70 115 0
18 72 115 0
32 -76 115 0
-30 -41 -116 0
-37 -72 -116 0
-13 74 -116 0
20 75 -116 0
14 -58 116 0
-30 -69 116 0
36 -71 116 0
-14 -76 116 0
37 43 -117 0
-15 -51 -117 0
3 -61 -117 0
14 -61 -117 0
-38 70 -117 0
31 -45 117 0
23 -50 117 0
-32 -62 117 0
-35 48 -118 0
21 64 -118 0
-21 46 118 0
29 -48 118 0
38 -48 118 0
39 -53 118 0
4 54 118 0
-34 64 118 0
5 66 118 0
34 66 118 0
-25 71 118 0
9 73 118 0
-7 80 118 0
27 -41 -119 0
17 -65 -119 0
-36 -72 -119 0
24 -42 119 0
-16 47 119 0
-4 49 119 0
-16 55 119 0
-35 57 119 0
-21 -60 119 0
6 66 119 0
-21 -68 119 0
7 71 119 0
28 -60 -120 0
-40 -61 -120 0
7 62 -120 0
-15 -68 -120 0
-34 69 -120 0
7 -78 -120 0
-36 78 -120 0
-8 50 120 0
-7 -58 120 0
